; Property from "Case-Analysis for Rippling and Inductive Proof",
; Moa Johansson, Lucas Dixon and Alan Bundy, ITP 2010
(declare-datatypes (a b)
  ((pair :source |Prelude.(,)|
     (pair2 :source |Prelude.(,)| (proj1-pair a) (proj2-pair b)))))
(declare-datatypes (a)
  ((list :source |Prelude.[]| (nil :source |Prelude.[]|)
     (cons :source |Prelude.:| (head a) (tail (list a))))))
(declare-datatypes ()
  ((Nat :source Definitions.Nat (Z :source Definitions.Z)
     (S :source Definitions.S (proj1-S Nat)))))
(define-fun-rec
  (par (a b)
    (zip :source Definitions.zip
       ((x (list a)) (y (list b))) (list (pair a b))
       (match x
         (case nil (as nil (list (pair a b))))
         (case (cons z x2)
           (match y
             (case nil (as nil (list (pair a b))))
             (case (cons x3 x4) (cons (pair2 z x3) (zip x2 x4)))))))))
(define-fun-rec
  (par (a)
    (take :source Definitions.take
       ((x Nat) (y (list a))) (list a)
       (match x
         (case Z (as nil (list a)))
         (case (S z)
           (match y
             (case nil (as nil (list a)))
             (case (cons x2 x3) (cons x2 (take z x3)))))))))
(prove
  :source Properties.prop_82
  (par (a b)
    (forall ((n Nat) (xs (list a)) (ys (list b)))
      (= (take n (zip xs ys)) (zip (take n xs) (take n ys))))))
